
Gurobi 5.6.0 (linux64) logging started Fri Feb 28 19:57:28 2014


Gurobi 5.6.0 (linux64) logging started Fri Feb 28 19:57:37 2014


Gurobi 5.6.0 (linux64) logging started Fri Feb 28 19:57:53 2014


Gurobi 5.6.0 (linux64) logging started Fri Feb 28 19:58:19 2014

